objective value:                                 -166
t_x15                                               1 	(obj:-100)
t_x22                                               1 	(obj:-100)
t_y22_35                                            1 	(obj:1)
t_y22_237                                           1 	(obj:1)
t_y22_246                                           1 	(obj:1)
t_y0_15                                             1 	(obj:1)
t_y22_167                                           1 	(obj:1)
t_y4_15                                             1 	(obj:1)
t_y22_208                                           1 	(obj:1)
t_y22_90                                            1 	(obj:1)
t_y15_150                                           1 	(obj:1)
t_y15_159                                           1 	(obj:1)
t_y15_124                                           1 	(obj:1)
t_y22_222                                           1 	(obj:1)
t_y15_186                                           1 	(obj:1)
t_y15_27                                            1 	(obj:1)
t_y15_96                                            1 	(obj:1)
t_y15_105                                           1 	(obj:1)
t_y15_158                                           1 	(obj:1)
t_y22_162                                           1 	(obj:1)
t_y15_37                                            1 	(obj:1)
t_y22_57                                            1 	(obj:1)
t_y15_83                                            1 	(obj:1)
t_y15_20                                            1 	(obj:1)
t_y22_135                                           1 	(obj:1)
t_y15_144                                           1 	(obj:1)
t_y15_42                                            1 	(obj:1)
t_y22_225                                           1 	(obj:1)
t_y22_248                                           1 	(obj:1)
t_y22_107                                           1 	(obj:1)
t_y22_141                                           1 	(obj:1)
t_y15_39                                            1 	(obj:1)
t_y15_31                                            1 	(obj:1)
t_y22_201                                           1 	(obj:1)
t_y22_219                                           1 	(obj:1)
t_y15_165                                           1 	(obj:1)
